NAME: test118
TYPE: TSP
DIMENSION: 20
EDGE_WEIGHT_TYPE: EUC_2D
NODE_COORD_SECTION
1 92.57847927835002 85.46106088723387
2 31.95310582600982 61.38919446254516
3 29.644944764719295 48.045689831790185
4 45.3680422848578 68.82041000460556
5 21.667430421450916 47.03507882241029
6 22.0404253761588 71.42013272627986
7 59.26149265907341 44.813846569115725
8 29.754651954583224 14.892469645604168
9 43.82399445774866 55.434542453519384
10 83.7802535670281 38.985786837421855
11 68.89280120522537 62.43938707011058
12 81.90999431913689 98.06156421474357
13 20.469375803775126 11.84871674905259
14 85.7831029889153 46.80676413404083
15 54.18134438213301 13.086361799472712
16 92.67326086913144 46.82520593477897
17 29.428252284777688 22.183270760424257
18 91.54940066656616 39.25020069942299
19 7.851259925516008 87.98347953848517
20 26.75640770011881 31.323935831780425
EOF
